# Crystalline aluminum : optimization of the lattice parameter
# at fixed number of k points and broadening.

#Definition of occupation numbers

#Definition of the unit cell
acell 3.985 3.985 5.64 angstrom
rprim  1.0  0.0  0.0   # FCC primitive vectors (to be scaled by acell)
       0.0  1.0  0.0 
       0.0  0.0  1.0

# #Optimization of the lattice parameters
# optcell 1
# ionmov  3
# ntime  10
# dilatmx 1.05
# ecutsm  0.5
# 
#Definition of the atom types
ntypat 2          # There is only one type of atom
znucl 11 17       # The keyword "znucl" refers to the atomic number of the 
                  # possible type(s) of atom. The pseudopotential(s) 
                  # mentioned in the "files" file must correspond
                  # to the type(s) of atom. Here, the only type is Aluminum
      
# Suppress use of symmetries                   
istwfk 16*1
nsym 1

#Definition of the atoms
natom 4           # There is only one atom per cell
typat 1 1 2 2           # This atom is of type 1, that is, Aluminum
xred              # This keyword indicate that the location of the atoms
                  # will follow, one triplet of number for each atom
   0.0  0.0  0.0     # Triplet giving the REDUCED coordinate of atom 1.
   0.5  0.5  0.5     # Triplet giving the REDUCED coordinate of atom 1.
   0.5  0.5  0.0     # Triplet giving the REDUCED coordinate of atom 1.
   0.0  0.0  0.5     # Triplet giving the REDUCED coordinate of atom 1.

#Definition of the planewave basis set
ecut  12.0         # Maximal kinetic energy cut-off, in Hartree

#Exchange-correlation functional
ixc 1             # LDA Teter Pade parametrization

##No sampling:
##Definition of the k-point grid
#kptopt 0          # Enter the k points manually 
#nkpt 1            # Only one k point is needed for isolated system,
                  # taken by default to be 0.0 0.0 0.0

#sampling
#Definition of the k-point grid
ngkpt 2 2 2       # This is a 2x2x2 FCC grid, based on the primitive vectors

#Definition of the SCF procedure
nstep 10          # Maximal number of SCF cycles
toldfe 1.0d-8     # Will stop when, twice in a row, the difference 
                  # between two consecutive evaluations of total energy 
                  # differ by less than toldfe (in Hartree) 
                  # This value is way too large for most realistic studies of materials
