# H2 molecule in a big box
#
# In this input file, the location of the information on this or that line
# is not important : a keyword is located by the parser, and the related
# information should follow. 
# The "#" symbol indicates the beginning of a comment : the remaining
# of the line will be skipped.

#Definition of the unit cell
acell 10 11 12    # The keyword "acell" refers to the
                  # lengths of the primitive vectors (in Bohr)
#rprim 1 0 0  0 1 0  0 0 1 # This line, defining orthogonal primitive vectors,
                           # is commented, because it is precisely the default value of rprim

nsym 1

#Definition of the atom types
ntypat 2          # There is only one type of atom
znucl 1 8         # The keyword "znucl" refers to the atomic number of the 
                  # possible type(s) of atom. The pseudopotential(s) 
                  # mentioned in the "files" file must correspond
                  # to the type(s) of atom. Here, the only type is Hydrogen.
                         

#Definition of the atoms
natom 3           # There are two atoms
typat 1 1 2       # They both are of type 1, that is, Hydrogen
xcart             # This keyword indicates that the location of the atoms
                  # will follow, one triplet of number for each atom, in Bohr
   1.508729    0.441434    0.259102
  -1.419465    0.543189    0.243811
   0.008165   -0.658276    0.215737

#Definition of the planewave basis set
ecut 20.0         # Maximal plane-wave kinetic energy cut-off, in Hartree

#Definition of the k-point grid
kptopt 0          # Enter the k points manually 
nkpt 1            # Only one k point is needed for isolated system,
                  # taken by default to be 0.0 0.0 0.0

#Definition of the SCF procedure
nstep 40          # Maximal number of SCF cycles
toldfe 1.0d-7     # Will stop when, twice in a row, the difference 
                  # between two consecutive evaluations of total energy 
                  # differ by less than toldfe (in Hartree) 
                  # This value is way too large for most realistic studies of materials
diemac 2.0        # Although this is not mandatory, it is worth to
                  # precondition the SCF cycle. The model dielectric
                  # function used as the standard preconditioner
                  # is described in the "dielng" input variable section.
                  # Here, we follow the prescriptions for molecules 
                  # in a big box
